p edge 50 606 15
v 4 5 14 33 45
v 3 6 10 29
v 4 11 12 17 24
v 6 8 16 26 39 41 43
v 5 7 19 25 28 46
v 3 13 36 38
v 2 4 18
v 3 35 37 50
v 2 15 27
v 6 1 9 21 22 32 49
v 3 30 34 42
v 4 23 31 40 44
v 3 2 20 47
v 1 3
v 1 48
e 1 2
e 1 3
e 1 8
e 1 13
e 1 14
e 1 15
e 1 16
e 1 18
e 1 19
e 1 22
e 1 24
e 1 25
e 1 27
e 1 29
e 1 30
e 1 31
e 1 37
e 1 38
e 1 39
e 1 40
e 1 43
e 1 44
e 1 46
e 1 48
e 1 49
e 1 50
e 2 3
e 2 4
e 2 5
e 2 6
e 2 8
e 2 10
e 2 12
e 2 15
e 2 17
e 2 18
e 2 20
e 2 21
e 2 24
e 2 27
e 2 28
e 2 29
e 2 31
e 2 32
e 2 33
e 2 35
e 2 36
e 2 38
e 2 39
e 2 42
e 2 43
e 2 44
e 2 45
e 2 46
e 2 47
e 2 49
e 2 50
e 3 4
e 3 5
e 3 7
e 3 8
e 3 10
e 3 13
e 3 15
e 3 21
e 3 22
e 3 24
e 3 27
e 3 30
e 3 36
e 3 37
e 3 38
e 3 40
e 3 41
e 3 43
e 3 44
e 3 47
e 3 49
e 4 5
e 4 7
e 4 9
e 4 12
e 4 13
e 4 14
e 4 16
e 4 19
e 4 23
e 4 26
e 4 28
e 4 29
e 4 30
e 4 32
e 4 33
e 4 34
e 4 35
e 4 38
e 4 40
e 4 41
e 4 42
e 4 43
e 4 44
e 4 46
e 4 47
e 4 48
e 4 50
e 5 6
e 5 10
e 5 12
e 5 17
e 5 18
e 5 19
e 5 20
e 5 21
e 5 23
e 5 25
e 5 26
e 5 27
e 5 29
e 5 30
e 5 31
e 5 40
e 5 44
e 5 46
e 5 47
e 6 11
e 6 13
e 6 17
e 6 19
e 6 22
e 6 23
e 6 24
e 6 34
e 6 39
e 6 41
e 6 42
e 6 43
e 6 45
e 6 46
e 6 48
e 6 50
e 7 9
e 7 12
e 7 15
e 7 17
e 7 18
e 7 19
e 7 21
e 7 24
e 7 25
e 7 28
e 7 31
e 7 36
e 7 37
e 7 40
e 7 41
e 7 42
e 7 44
e 7 45
e 7 46
e 8 9
e 8 12
e 8 14
e 8 15
e 8 16
e 8 17
e 8 22
e 8 25
e 8 26
e 8 27
e 8 28
e 8 30
e 8 34
e 8 35
e 8 38
e 8 40
e 8 41
e 8 42
e 8 43
e 8 46
e 9 10
e 9 12
e 9 13
e 9 14
e 9 22
e 9 23
e 9 24
e 9 27
e 9 28
e 9 30
e 9 34
e 9 35
e 9 36
e 9 37
e 9 39
e 9 40
e 9 41
e 9 42
e 9 44
e 9 45
e 9 47
e 9 50
e 10 11
e 10 12
e 10 13
e 10 14
e 10 15
e 10 17
e 10 20
e 10 22
e 10 23
e 10 26
e 10 30
e 10 32
e 10 34
e 10 37
e 10 38
e 10 41
e 10 48
e 10 49
e 10 50
e 11 13
e 11 14
e 11 15
e 11 16
e 11 20
e 11 21
e 11 22
e 11 25
e 11 29
e 11 30
e 11 32
e 11 38
e 11 39
e 11 42
e 11 43
e 11 44
e 11 45
e 11 46
e 11 47
e 12 14
e 12 18
e 12 20
e 12 24
e 12 25
e 12 26
e 12 28
e 12 30
e 12 32
e 12 34
e 12 35
e 12 37
e 12 38
e 12 40
e 12 47
e 12 48
e 13 14
e 13 16
e 13 18
e 13 20
e 13 21
e 13 23
e 13 24
e 13 28
e 13 30
e 13 31
e 13 32
e 13 34
e 13 36
e 13 38
e 13 39
e 13 40
e 13 41
e 13 42
e 13 45
e 13 46
e 14 15
e 14 16
e 14 22
e 14 24
e 14 25
e 14 26
e 14 27
e 14 29
e 14 30
e 14 31
e 14 33
e 14 37
e 14 40
e 14 46
e 14 47
e 14 48
e 15 16
e 15 18
e 15 19
e 15 20
e 15 29
e 15 30
e 15 31
e 15 32
e 15 35
e 15 36
e 15 38
e 15 39
e 15 41
e 15 44
e 15 45
e 15 46
e 16 17
e 16 18
e 16 19
e 16 20
e 16 23
e 16 24
e 16 25
e 16 26
e 16 27
e 16 28
e 16 32
e 16 33
e 16 35
e 16 38
e 16 39
e 16 41
e 16 42
e 16 46
e 16 49
e 16 50
e 17 20
e 17 21
e 17 23
e 17 26
e 17 27
e 17 28
e 17 29
e 17 30
e 17 31
e 17 32
e 17 36
e 17 37
e 17 39
e 17 40
e 17 42
e 17 46
e 17 48
e 17 49
e 17 50
e 18 19
e 18 20
e 18 21
e 18 22
e 18 26
e 18 28
e 18 32
e 18 34
e 18 41
e 18 44
e 18 47
e 19 20
e 19 22
e 19 23
e 19 25
e 19 26
e 19 28
e 19 29
e 19 32
e 19 34
e 19 35
e 19 37
e 19 38
e 19 40
e 19 41
e 19 44
e 19 45
e 19 46
e 19 47
e 19 49
e 19 50
e 20 21
e 20 22
e 20 23
e 20 25
e 20 30
e 20 31
e 20 32
e 20 33
e 20 34
e 20 35
e 20 38
e 20 40
e 20 41
e 20 44
e 20 45
e 20 46
e 20 48
e 20 50
e 21 26
e 21 30
e 21 31
e 21 32
e 21 34
e 21 35
e 21 37
e 21 38
e 21 39
e 21 40
e 21 45
e 21 48
e 21 49
e 21 50
e 22 23
e 22 24
e 22 26
e 22 29
e 22 30
e 22 34
e 22 39
e 22 40
e 22 42
e 22 43
e 22 45
e 22 46
e 22 47
e 22 49
e 23 24
e 23 27
e 23 29
e 23 31
e 23 35
e 23 37
e 23 38
e 23 39
e 23 40
e 23 42
e 23 44
e 23 45
e 23 46
e 24 25
e 24 26
e 24 27
e 24 28
e 24 31
e 24 33
e 24 34
e 24 35
e 24 37
e 24 41
e 24 42
e 24 43
e 24 44
e 24 45
e 24 48
e 25 28
e 25 29
e 25 33
e 25 35
e 25 39
e 25 41
e 25 42
e 25 43
e 25 44
e 25 45
e 25 47
e 25 48
e 25 49
e 25 50
e 26 27
e 26 30
e 26 33
e 26 34
e 26 37
e 26 39
e 26 40
e 26 41
e 26 42
e 26 44
e 26 50
e 27 29
e 27 31
e 27 32
e 27 34
e 27 35
e 27 38
e 27 42
e 27 43
e 27 44
e 27 48
e 28 30
e 28 32
e 28 34
e 28 36
e 28 38
e 28 39
e 28 40
e 28 42
e 28 43
e 28 44
e 28 47
e 28 49
e 29 31
e 29 33
e 29 34
e 29 36
e 29 37
e 29 38
e 29 39
e 29 40
e 29 41
e 29 42
e 29 45
e 29 46
e 29 49
e 29 50
e 30 31
e 30 32
e 30 34
e 30 35
e 30 36
e 30 39
e 30 40
e 30 41
e 30 42
e 30 46
e 30 47
e 30 48
e 30 49
e 31 32
e 31 35
e 31 38
e 31 40
e 31 42
e 31 43
e 31 48
e 31 49
e 31 50
e 32 34
e 32 37
e 32 43
e 33 34
e 33 41
e 33 45
e 33 46
e 33 47
e 33 48
e 33 50
e 34 36
e 34 37
e 34 38
e 34 39
e 34 41
e 34 43
e 34 44
e 34 45
e 34 46
e 34 47
e 34 49
e 34 50
e 35 36
e 35 37
e 35 38
e 35 39
e 35 43
e 35 46
e 35 49
e 36 41
e 36 42
e 36 43
e 36 46
e 36 48
e 37 38
e 37 40
e 37 43
e 37 48
e 37 50
e 38 39
e 38 40
e 38 46
e 39 40
e 39 41
e 39 44
e 39 45
e 39 47
e 39 48
e 40 42
e 40 46
e 40 50
e 41 42
e 41 43
e 41 46
e 41 47
e 41 48
e 41 49
e 42 43
e 42 47
e 43 44
e 43 45
e 43 50
e 44 48
e 44 50
e 45 47
e 45 48
e 45 50
e 46 47
e 46 48
e 46 49
e 47 49
e 48 49
